Route #1: 21 31 19 17 13 7 26
Route #2: 12 1 16 30
Route #3: 27 24
Route #4: 29 18 8 9 22 15 10 25 5 20
Route #5: 14 28 11 4 23 3 2 6
Cost 784


CG LP value: 1.1115 x 10^3
CG ILP value: 1.1555 x 10^3

GM LP Value: 1.1115 x 10^3
GM ILP Value: 1.1315 x 10^3


Routes Missing:
These are routes found in the GM ILP but not the CG ILP.

route: start -> 20 -> 5 -> 25 -> 10 -> end
reduced cost: -35.6

route: start -> 7 -> 13 -> 1 -> 12 -> end
rc: -12.95

